c --- [ banner ] -------------------------------------------------------------
c 
c CaDiCaL Radically Simplified CDCL SAT Solver
c Copyright (c) 2016-2021 A. Biere, M. Fleury, N. Froleyks
c 
c Version 1.5.2 ca9bff05c11bde5eae4912f9932871d1527e61d8
c g++ (GCC) 9.3.0 -Wall -Wextra -O3 -DNDEBUG
c Sun May 1 02:23:23 EDT 2022 Linux gra-login1 3.10.0-1160.59.1.el7.x86_64 x86_64
c 
c --- [ limit ] --------------------------------------------------------------
c 
c setting conflict limit to 200000 conflicts (due to '200000')
c 
c --- [ parsing input ] ------------------------------------------------------
c 
c reading DIMACS file from '12.cubes241.adj'
c opening file to read '12.cubes241.adj'
c found 'p cnf 5320 924208' header
c parsed 924208 clauses in 8.75 seconds process time
c closing file '12.cubes241.adj'
c after reading 686668102 bytes 654.9 MB
c 
c --- [ options ] ------------------------------------------------------------
c 
c all options are set to their default value
c 
c --- [ solving ] ------------------------------------------------------------
c 
c time measured in process time since initialization
c 
c  seconds   reductions  redundant  irredundant
c          MB    restarts       trail      variables
c           level   conflicts       glue        remaining
c 
c *  8.75 689  0 0   0    0    0  0% 0 923580 3911 74%
c {  9.26 713  0 0   0    0    0  0% 0 923580 3911 74%
c i 10.80 737 16 0  47  252  119 40% 8 923580 3901 73%
c i 10.89 738 16 0  47  256  121 40% 8 923580 3900 73%
c i 11.07 738 17 0  52  272  134 41% 9 923580 3897 73%
c i 11.08 738 17 0  52  273  134 41% 9 923580 3896 73%
c i 11.08 738 17 0  52  275  135 41% 9 923580 3895 73%
c i 11.08 738 17 0  53  276  135 41% 9 923580 3894 73%
c i 11.09 738 17 0  53  277  135 41% 9 923580 3893 73%
c i 11.12 739 17 0  55  284  141 42% 9 923580 3892 73%
c i 11.22 740 18 0  60  302  155 42% 10 923580 3891 73%
c - 12.94 689 18 1  60  302  155 42% 10 122014 3891 73%
c i 12.99 689 18 1  61  304  156 42% 10 122014 3890 73%
c i 13.34 689 26 1  82  389  228 44% 14 122014 3889 73%
c i 13.35 689 25 1  83  392  230 44% 14 122014 3888 73%
c i 13.80 689 32 1 119  562  366 46% 17 122014 3887 73%
c i 14.02 689 27 1 142  880  451 44% 16 122014 3886 73%
c i 14.02 689 27 1 143  882  452 44% 16 122014 3885 73%
c i 14.03 689 28 1 143  884  453 44% 16 122014 3884 73%
c - 14.40 713 30 2 161  954  445 45% 17 121993 3884 73%
c 
c  seconds   reductions  redundant   irredundant
c          MB    restarts       trail       variables
c           level   conflicts       glue         remaining
c 
c } 14.48 713 30 2 170 1004  477 45% 17 121993 3884 73%
c [ 14.48 713  0 2 170 1004  477  0% 0 121993 3884 73%
c O 14.49 713  1 2 170 1005  477 34% 0 121993 3884 73%
c i 14.49 713  1 2 170 1005  477 34% 0 121993 3867 73%
c i 14.49 713  1 2 170 1010  480 35% 1 121993 3825 72%
c i 14.49 713  1 2 170 1011  480 35% 1 121993 3807 72%
c i 14.49 713  1 2 170 1012  480 34% 1 121993 3790 71%
c i 14.50 713  9 2 170 1046  494 41% 7 121993 3789 71%
c i 14.50 713  9 2 170 1047  494 41% 6 121993 3788 71%
c i 14.51 713  8 2 170 1048  494 41% 6 121993 3787 71%
c i 14.51 713  8 2 170 1049  494 42% 6 121993 3786 71%
c i 14.51 713  9 2 170 1053  495 43% 6 121993 3785 71%
c i 14.52 713  9 2 170 1055  496 43% 6 121993 3784 71%
c i 14.52 713 10 2 170 1063  503 45% 7 121993 3783 71%
c i 14.53 713 13 2 170 1084  521 47% 9 121993 3782 71%
c i 14.54 713 14 2 170 1094  527 48% 10 121993 3781 71%
c i 14.54 713 15 2 170 1100  529 49% 11 121993 3780 71%
c i 14.56 713 17 2 170 1119  546 50% 13 121993 3779 71%
c i 14.57 713 19 2 170 1153  566 51% 15 121993 3778 71%
c i 14.58 713 19 2 170 1157  569 52% 15 121993 3777 71%
c 
c  seconds   reductions  redundant   irredundant
c          MB    restarts       trail       variables
c           level   conflicts       glue         remaining
c 
c i 14.60 713 19 2 170 1211  600 52% 16 121993 3776 71%
c i 14.61 713 19 2 170 1227  611 52% 16 121993 3775 71%
c i 14.61 713 20 2 170 1247  624 53% 16 121993 3774 71%
c i 14.63 713 20 2 170 1329  685 54% 17 121993 3773 71%
c i 14.71 713 20 2 170 1550  823 54% 17 121993 3772 71%
c i 14.71 713 20 2 170 1552  821 54% 17 121993 3771 71%
c i 14.73 713 20 2 170 1612  867 54% 17 121993 3770 71%
c i 14.79 713 20 2 170 1790  976 54% 17 121993 3769 71%
c i 14.81 713 20 2 170 1863 1024 54% 17 121993 3768 71%
c - 14.97 708 20 3 170 1931  818 54% 17 120783 3768 71%
c i 15.02 708 20 3 170 2007  870 55% 17 120783 3767 71%
c i 15.08 708 19 3 171 2133  945 55% 17 120783 3766 71%
c i 15.08 708 19 3 171 2168  974 55% 17 120783 3765 71%
c i 15.09 708 19 3 171 2175  977 55% 17 120783 3764 71%
c i 15.18 708 20 3 171 2459 1142 55% 16 120783 3763 71%
c i 15.21 708 19 3 171 2581 1197 55% 16 120783 3762 71%
c i 15.23 708 19 3 171 2705 1264 55% 17 120783 3761 71%
c i 15.28 708 20 3 171 2920 1397 55% 17 120783 3760 71%
c i 15.28 708 20 3 171 2924 1400 55% 17 120783 3759 71%
c i 15.28 708 20 3 171 2928 1403 55% 17 120783 3758 71%
c 
c  seconds   reductions  redundant   irredundant
c          MB    restarts       trail       variables
c           level   conflicts       glue         remaining
c 
c ] 15.29 708 20 3 171 3005 1451 55% 17 120783 3758 71%
c { 15.29 708 30 3 171 3005 1451 45% 17 120783 3758 71%
c F 15.40 708 30 3 171 3006 1452 10% 17 120753 3758 71%
c i 15.46 708 29 3 171 3046 1483 34% 16 120753 3757 71%
c i 15.56 708 31 3 184 3173 1575 35% 17 120753 3756 71%
c i 15.56 708 31 3 184 3175 1575 35% 17 120753 3754 71%
c i 15.62 708 33 3 192 3206 1599 35% 18 120753 3753 71%
c i 15.65 708 33 3 195 3221 1612 35% 18 120753 3752 71%
c - 15.74 672 33 4 197 3229 1177 34% 18 120735 3752 71%
c i 15.80 672 34 4 203 3250 1193 34% 18 120735 3751 71%
c i 15.85 672 34 4 208 3275 1211 33% 18 120735 3750 70%
c i 15.95 672 35 4 216 3333 1249 32% 18 120735 3749 70%
c i 15.97 672 36 4 218 3344 1259 32% 18 120735 3748 70%
c i 16.17 672 37 4 242 3464 1353 33% 19 120735 3747 70%
c i 16.33 672 37 4 253 3560 1414 31% 19 120735 3746 70%
c i 16.35 672 37 4 256 3572 1424 31% 19 120735 3745 70%
c i 16.42 672 39 4 269 3631 1471 32% 20 120735 3744 70%
c i 16.53 672 40 4 279 3675 1512 32% 21 120735 3743 70%
c i 16.88 672 35 4 332 4244 1740 28% 20 120735 3742 70%
c i 16.95 672 35 4 332 4363 1831 28% 19 120735 3741 70%
c 
c  seconds   reductions  redundant   irredundant
c          MB    restarts       trail       variables
c           level   conflicts       glue         remaining
c 
c i 17.17 672 34 4 340 4657 2037 29% 19 120735 3740 70%
c i 17.19 672 34 4 340 4690 2058 29% 19 120735 3739 70%
c - 17.37 673 34 5 350 4852 1518 30% 19 120696 3739 70%
c 2 17.87 673 36 5 384 5000 3278 30% 21 120599 3721 70%
c p 19.16 673 36 5 384 5000 9574 30% 21 120599 3682 69%
c d 19.27 673 36 5 384 5000 9021 30% 21 97385 3681 69%
c # 19.75 673 31 5 396 6007 9531 33% 18 97385 3681 69%
c - 20.01 673 28 6 396 6801 2109 35% 17 97385 3681 69%
c } 20.06 673 28 6 405 7005 2217 35% 17 97385 3681 69%
c [ 20.06 673 20 6 405 7005 2217 78% 17 97385 3681 69%
c - 20.62 673 19 7 406 8904 2213 59% 16 97385 3681 69%
c ] 20.68 673 19 7 406 9114 2368 57% 16 97385 3681 69%
c 1 20.68 673 19 7 406 9114 2368 57% 16 97385 3681 69%
c 
c --- [ writing output ] -----------------------------------------------------
c 
c writing simplified CNF to DIMACS file 'simp/12.cubes241.adj.simp1'
c * 20.68 673 19 7 406 9114 2368 57% 16 97385 3681 69%
c opening file to write 'simp/12.cubes241.adj.simp1'
c writing 'p cnf 5320 97385' header
c closing file 'simp/12.cubes241.adj.simp1'
c after writing 28676789 bytes 27.3 MB
c wrote 97385 clauses in 0.22 seconds process time
c 
c --- [ writing extension ] --------------------------------------------------
c 
c writing extension stack to 'simp/12.cubes241.adj.ext1'
c opening file to write 'simp/12.cubes241.adj.ext1'
c closing file 'simp/12.cubes241.adj.ext1'
c after writing 24059 bytes 0.0 MB
c wrote 1648 witnesses in 0.00 seconds process time
c 
c --- [ result ] -------------------------------------------------------------
c 
s SATISFIABLE
c 
c --- [ run-time profiling ] -------------------------------------------------
c 
c process time taken by individual solving procedures
c (percentage relative to process time for solving)
c 
c        10.36   86.91% search
c         8.75   73.42% parse
c         8.43   70.71% unstable
c         1.56   13.09% simplify
c         1.42   11.92% stable
c         1.29   10.78% probe
c         0.51    4.28% lucky
c         0.03    0.26% ternary
c   =================================
c        11.92   57.06% solve
c 
c last line shows process time for solving
c (percentage relative to total process time)
c 
c --- [ statistics ] ---------------------------------------------------------
c 
c chronological:              1877        20.59 %  of conflicts
c conflicts:                  9114       764.50    per second
c decisions:                 33322      2795.10    per second
c fixed:                      1630        30.64 %  of all variables
c learned:                    8886        97.50 %  per conflict
c learned_lits:            1258879       100.00 %  learned literals
c minimized:                     0         0.00 %  learned literals
c shrunken:                 839928        66.72 %  learned literals
c minishrunken:              65879         5.23 %  learned literals
c propagations:            1984698         0.17 M  per second
c reduced:                    2990        32.81 %  per conflict
c rephased:                      3      3038.00    interval
c restarts:                    406        22.45    interval
c stabilizing:                   2        45.10 %  of conflicts
c substituted:                   9         0.17 %  of all variables
c subsumed:                   3604         0.19 %  of all clauses
c ternary:                    1638         0.41 %  of resolved
c weakened:                     18         2.00    average size
c 
c seconds are measured in process time for solving
c 
c --- [ resources ] ----------------------------------------------------------
c 
c total process time since initialization:        20.89    seconds
c total real time since initialization:           20.95    seconds
c maximum resident set size of process:          749.30    MB
c 
c --- [ shutting down ] ------------------------------------------------------
c 
c exit 10
c --- [ banner ] -------------------------------------------------------------
c 
c CaDiCaL Radically Simplified CDCL SAT Solver
c Copyright (c) 2016-2021 A. Biere, M. Fleury, N. Froleyks
c 
c Version 1.5.2 ca9bff05c11bde5eae4912f9932871d1527e61d8
c g++ (GCC) 9.3.0 -Wall -Wextra -O3 -DNDEBUG
c Sun May 1 02:23:23 EDT 2022 Linux gra-login1 3.10.0-1160.59.1.el7.x86_64 x86_64
c 
c --- [ limit ] --------------------------------------------------------------
c 
c setting conflict limit to 200000 conflicts (due to '200000')
c 
c --- [ parsing input ] ------------------------------------------------------
c 
c reading DIMACS file from 'simp/12.cubes241.adj.simp1'
c opening file to read 'simp/12.cubes241.adj.simp1'
c found 'p cnf 5320 97385' header
c parsed 97385 clauses in 0.41 seconds process time
c closing file 'simp/12.cubes241.adj.simp1'
c after reading 28676789 bytes 27.3 MB
c 
c --- [ options ] ------------------------------------------------------------
c 
c all options are set to their default value
c 
c --- [ solving ] ------------------------------------------------------------
c 
c time measured in process time since initialization
c 
c  seconds  reductions  redundant  irredundant
c         MB    restarts       trail     variables
c          level   conflicts       glue       remaining
c 
c *  0.41 35  0 0   0    0    0  0% 0 97385 3656 69%
c {  0.43 37  0 0   0    0    0  0% 0 97385 3656 69%
c -  0.95 48 57 1  58  302  202 18% 22 97385 3656 69%
c -  1.22 75 40 2  79  904  342 17% 17 97385 3656 69%
c }  1.25 71 39 2  79 1001  384 17% 16 97385 3656 69%
c [  1.25 71  0 2  79 1001  384  0% 0 97385 3656 69%
c O  1.26 71 34 2  79 1002  385  8% 5 97385 3656 69%
c -  1.47 71 40 3  79 1804  845 27% 13 97385 3656 69%
c ]  1.76 71 29 3  80 3002 1694 38% 15 97385 3656 69%
c {  1.76 71 39 3  80 3002 1694 25% 16 97385 3656 69%
c F  1.76 71 39 3  80 3003 1695 25% 16 97385 3656 69%
c -  1.81 71 39 4  80 3005 1289 25% 16 97385 3656 69%
c -  2.87 70 37 5 271 4505 1611 28% 19 97385 3656 69%
c p  3.39 70 33 5 271 5001 9010 29% 18 97385 3656 69%
c #  4.06 70 32 5 368 6004 9690 31% 18 97385 3656 69%
c }  4.14 70 32 5 380 6090 9759 31% 18 97385 3656 69%
c 1  4.14 70 32 5 380 6090 9759 31% 18 97385 3656 69%
c 
c --- [ writing output ] -----------------------------------------------------
c 
c writing simplified CNF to DIMACS file 'simp/12.cubes241.adj.simp2'
c *  4.14 70 32 5 380 6090 9759 31% 18 97385 3656 69%
c opening file to write 'simp/12.cubes241.adj.simp2'
c writing 'p cnf 5320 97385' header
c closing file 'simp/12.cubes241.adj.simp2'
c after writing 28676762 bytes 27.3 MB
c wrote 97385 clauses in 0.22 seconds process time
c 
c --- [ writing extension ] --------------------------------------------------
c 
c writing extension stack to 'simp/12.cubes241.adj.ext2'
c opening file to write 'simp/12.cubes241.adj.ext2'
c closing file 'simp/12.cubes241.adj.ext2'
c after writing 0 bytes 0.0 MB
c wrote 0 witnesses in 0.00 seconds process time
c 
c --- [ result ] -------------------------------------------------------------
c 
s SATISFIABLE
c 
c --- [ run-time profiling ] -------------------------------------------------
c 
c process time taken by individual solving procedures
c (percentage relative to process time for solving)
c 
c         3.39   91.05% search
c         2.87   77.05% unstable
c         0.50   13.50% stable
c         0.41   11.01% parse
c         0.33    8.94% simplify
c         0.29    7.90% probe
c         0.02    0.63% ternary
c         0.02    0.51% lucky
c   =================================
c         3.73   85.54% solve
c 
c last line shows process time for solving
c (percentage relative to total process time)
c 
c --- [ statistics ] ---------------------------------------------------------
c 
c chronological:              1347        22.12 %  of conflicts
c conflicts:                  6090      1633.74    per second
c decisions:                 25523      6846.95    per second
c learned:                    5923        97.26 %  per conflict
c learned_lits:             777220       100.00 %  learned literals
c minimized:                     0         0.00 %  learned literals
c shrunken:                 364533        46.90 %  learned literals
c minishrunken:              98321        12.65 %  learned literals
c propagations:            1273417         0.34 M  per second
c reduced:                    1393        22.87 %  per conflict
c rephased:                      3      2030.00    interval
c restarts:                    380        16.03    interval
c stabilizing:                   1        32.86 %  of conflicts
c subsumed:                   1868         0.85 %  of all clauses
c ternary:                    1615         0.44 %  of resolved
c 
c seconds are measured in process time for solving
c 
c --- [ resources ] ----------------------------------------------------------
c 
c total process time since initialization:         4.36    seconds
c total real time since initialization:            4.39    seconds
c maximum resident set size of process:           98.13    MB
c 
c --- [ shutting down ] ------------------------------------------------------
c 
c exit 10
c --- [ banner ] -------------------------------------------------------------
c 
c CaDiCaL Radically Simplified CDCL SAT Solver
c Copyright (c) 2016-2021 A. Biere, M. Fleury, N. Froleyks
c 
c Version 1.5.2 ca9bff05c11bde5eae4912f9932871d1527e61d8
c g++ (GCC) 9.3.0 -Wall -Wextra -O3 -DNDEBUG
c Sun May 1 02:23:23 EDT 2022 Linux gra-login1 3.10.0-1160.59.1.el7.x86_64 x86_64
c 
c --- [ limit ] --------------------------------------------------------------
c 
c setting conflict limit to 200000 conflicts (due to '200000')
c 
c --- [ parsing input ] ------------------------------------------------------
c 
c reading DIMACS file from 'simp/12.cubes241.adj.simp2'
c opening file to read 'simp/12.cubes241.adj.simp2'
c found 'p cnf 5320 97385' header
c parsed 97385 clauses in 0.37 seconds process time
c closing file 'simp/12.cubes241.adj.simp2'
c after reading 28676762 bytes 27.3 MB
c 
c --- [ options ] ------------------------------------------------------------
c 
c all options are set to their default value
c 
c --- [ solving ] ------------------------------------------------------------
c 
c time measured in process time since initialization
c 
c  seconds  reductions  redundant  irredundant
c         MB    restarts       trail     variables
c          level   conflicts       glue       remaining
c 
c *  0.38 35  0 0   0    0    0  0% 0 97385 3656 69%
c {  0.39 36  0 0   0    0    0  0% 0 97385 3656 69%
c -  0.77 46 38 1  32  304  172 17% 14 97385 3656 69%
c -  1.67 79 42 2 107  911  586 19% 17 97385 3656 69%
c }  1.72 79 40 2 111 1000  651 20% 17 97385 3656 69%
c [  1.72 79  0 2 111 1000  651  0% 0 97385 3656 69%
c O  1.72 74 17 2 111 1006  656 25% 6 97385 3656 69%
c -  2.09 74 18 3 111 1812  839 23% 15 97385 3656 69%
c ]  2.52 73 18 3 112 3000 1465 24% 15 97385 3656 69%
c {  2.52 73 40 3 112 3000 1465 20% 17 97385 3656 69%
c F  2.58 73 40 3 112 3008 1471  6% 17 97385 3656 69%
c -  2.61 73 40 4 112 3012 1112 10% 17 97385 3656 69%
c -  3.27 73 29 5 213 4514 1489 35% 16 97385 3656 69%
c p  3.82 73 27 5 216 5000 8947 36% 16 97385 3655 69%
c i  4.12 73 26 5 264 5798 9438 36% 16 97385 3654 69%
c i  4.12 73 26 5 264 5799 9438 36% 16 97385 3640 68%
c #  4.18 73 25 5 269 6009 9556 36% 16 97385 3640 68%
c -  4.36 100 24 6 269 6315 2083 36% 15 96723 3640 68%
c }  4.42 100 24 6 269 6467 2161 36% 15 96723 3640 68%
c 1  4.42 100 24 6 269 6467 2161 36% 15 96723 3640 68%
c 
c --- [ writing output ] -----------------------------------------------------
c 
c writing simplified CNF to DIMACS file 'simp/12.cubes241.adj.simp3'
c 
c  seconds   reductions  redundant   irredundant
c          MB    restarts       trail      variables
c           level   conflicts       glue        remaining
c 
c *  4.42 100 24 6 269 6467 2161 36% 15 96723 3640 68%
c opening file to write 'simp/12.cubes241.adj.simp3'
c writing 'p cnf 5320 96723' header
c closing file 'simp/12.cubes241.adj.simp3'
c after writing 28253137 bytes 26.9 MB
c wrote 96723 clauses in 0.21 seconds process time
c 
c --- [ writing extension ] --------------------------------------------------
c 
c writing extension stack to 'simp/12.cubes241.adj.ext3'
c opening file to write 'simp/12.cubes241.adj.ext3'
c closing file 'simp/12.cubes241.adj.ext3'
c after writing 222 bytes 0.0 MB
c wrote 16 witnesses in 0.00 seconds process time
c 
c --- [ result ] -------------------------------------------------------------
c 
s SATISFIABLE
c 
c --- [ run-time profiling ] -------------------------------------------------
c 
c process time taken by individual solving procedures
c (percentage relative to process time for solving)
c 
c         3.63   89.94% search
c         2.81   69.54% unstable
c         0.81   19.97% stable
c         0.41   10.06% simplify
c         0.37    9.28% parse
c         0.37    9.10% probe
c         0.02    0.57% ternary
c         0.02    0.43% lucky
c   =================================
c         4.04   87.29% solve
c 
c last line shows process time for solving
c (percentage relative to total process time)
c 
c --- [ statistics ] ---------------------------------------------------------
c 
c chronological:              1400        21.65 %  of conflicts
c conflicts:                  6467      1600.68    per second
c decisions:                 21271      5264.89    per second
c fixed:                        16         0.30 %  of all variables
c learned:                    6303        97.46 %  per conflict
c learned_lits:             866767       100.00 %  learned literals
c minimized:                     0         0.00 %  learned literals
c shrunken:                 612952        70.72 %  learned literals
c minishrunken:              38344         4.42 %  learned literals
c propagations:            1459778         0.36 M  per second
c reduced:                    1893        29.27 %  per conflict
c rephased:                      3      2155.67    interval
c restarts:                    269        24.04    interval
c stabilizing:                   1        30.93 %  of conflicts
c subsumed:                   2429         1.10 %  of all clauses
c ternary:                    1601         0.44 %  of resolved
c 
c seconds are measured in process time for solving
c 
c --- [ resources ] ----------------------------------------------------------
c 
c total process time since initialization:         4.63    seconds
c total real time since initialization:            4.66    seconds
c maximum resident set size of process:          100.46    MB
c 
c --- [ shutting down ] ------------------------------------------------------
c 
c exit 10
c --- [ banner ] -------------------------------------------------------------
c 
c CaDiCaL Radically Simplified CDCL SAT Solver
c Copyright (c) 2016-2021 A. Biere, M. Fleury, N. Froleyks
c 
c Version 1.5.2 ca9bff05c11bde5eae4912f9932871d1527e61d8
c g++ (GCC) 9.3.0 -Wall -Wextra -O3 -DNDEBUG
c Sun May 1 02:23:23 EDT 2022 Linux gra-login1 3.10.0-1160.59.1.el7.x86_64 x86_64
c 
c --- [ limit ] --------------------------------------------------------------
c 
c setting conflict limit to 200000 conflicts (due to '200000')
c 
c --- [ parsing input ] ------------------------------------------------------
c 
c reading DIMACS file from 'simp/12.cubes241.adj.simp3'
c opening file to read 'simp/12.cubes241.adj.simp3'
c found 'p cnf 5320 96723' header
c parsed 96723 clauses in 0.37 seconds process time
c closing file 'simp/12.cubes241.adj.simp3'
c after reading 28253137 bytes 26.9 MB
c 
c --- [ options ] ------------------------------------------------------------
c 
c all options are set to their default value
c 
c --- [ solving ] ------------------------------------------------------------
c 
c time measured in process time since initialization
c 
c  seconds  reductions  redundant  irredundant
c         MB    restarts       trail     variables
c          level   conflicts       glue       remaining
c 
c *  0.37 34  0 0   0    0    0  0% 0 96723 3640 68%
c {  0.39 36  0 0   0    0    0  0% 0 96723 3640 68%
c -  0.71 46 29 1  20  300  167 15% 13 96723 3640 68%
c -  1.71 78 47 2 138  901  546 17% 22 96723 3640 68%
c }  1.75 78 44 2 138 1000  616 17% 21 96723 3640 68%
c [  1.75 78  0 2 138 1000  616  0% 0 96723 3640 68%
c O  1.75 78 16 2 138 1003  618 13% 4 96723 3640 68%
c -  1.98 72 16 3 138 1802  986 26% 13 96723 3640 68%
c ]  2.23 72 17 3 139 3002 1870 26% 14 96723 3640 68%
c {  2.23 72 44 3 139 3002 1870 17% 21 96723 3640 68%
c -  2.26 72 44 4 139 3002 1347 17% 21 96723 3640 68%
c F  2.31 72 44 4 139 3004 1349 23% 21 96723 3640 68%
c -  3.20 64 43 5 206 4502 1655 30% 19 96723 3640 68%
c 2  3.51 65 42 5 244 5000 3589 32% 19 96716 3640 68%
c p  3.82 65 42 5 244 5000 9150 32% 19 96716 3640 68%
c d  3.85 64 42 5 244 5000 9148 32% 19 96714 3638 68%
c #  4.32 64 37 5 264 6005 9733 32% 19 96714 3638 68%
c -  4.43 91 35 6 264 6302 2262 33% 19 96714 3638 68%
c }  4.64 91 33 6 264 7003 2720 33% 18 96714 3638 68%
c [  4.64 91 17 6 264 7003 2720 38% 14 96714 3638 68%
c 
c  seconds  reductions  redundant   irredundant
c         MB    restarts       trail      variables
c          level   conflicts       glue        remaining
c 
c ]  4.73 91 17 6 265 7367 2914 37% 15 96714 3638 68%
c 1  4.73 91 17 6 265 7367 2914 37% 15 96714 3638 68%
c 
c --- [ writing output ] -----------------------------------------------------
c 
c writing simplified CNF to DIMACS file 'simp/12.cubes241.adj.simp4'
c *  4.73 91 17 6 265 7367 2914 37% 15 96714 3638 68%
c opening file to write 'simp/12.cubes241.adj.simp4'
c writing 'p cnf 5320 96714' header
c closing file 'simp/12.cubes241.adj.simp4'
c after writing 28253014 bytes 26.9 MB
c wrote 96714 clauses in 0.21 seconds process time
c 
c --- [ writing extension ] --------------------------------------------------
c 
c writing extension stack to 'simp/12.cubes241.adj.ext4'
c opening file to write 'simp/12.cubes241.adj.ext4'
c closing file 'simp/12.cubes241.adj.ext4'
c after writing 74 bytes 0.0 MB
c wrote 4 witnesses in 0.00 seconds process time
c 
c --- [ result ] -------------------------------------------------------------
c 
s SATISFIABLE
c 
c --- [ run-time profiling ] -------------------------------------------------
c 
c process time taken by individual solving procedures
c (percentage relative to process time for solving)
c 
c         3.98   91.41% search
c         3.40   78.03% unstable
c         0.57   12.99% stable
c         0.37    8.59% simplify
c         0.37    8.45% parse
c         0.32    7.23% probe
c         0.02    0.53% ternary
c         0.02    0.38% lucky
c   =================================
c         4.36   88.20% solve
c 
c last line shows process time for solving
c (percentage relative to total process time)
c 
c --- [ statistics ] ---------------------------------------------------------
c 
c chronological:              1632        22.15 %  of conflicts
c conflicts:                  7367      1690.86    per second
c decisions:                 26083      5986.52    per second
c learned:                    7216        97.95 %  per conflict
c learned_lits:             990205       100.00 %  learned literals
c minimized:                     0         0.00 %  learned literals
c shrunken:                 469221        47.39 %  learned literals
c minishrunken:             147896        14.94 %  learned literals
c propagations:            1437289         0.33 M  per second
c reduced:                    2388        32.41 %  per conflict
c rephased:                      3      2455.67    interval
c restarts:                    265        27.80    interval
c stabilizing:                   2        32.12 %  of conflicts
c substituted:                   2         0.04 %  of all variables
c subsumed:                   2149         0.97 %  of all clauses
c ternary:                    1570         0.44 %  of resolved
c weakened:                      4         2.00    average size
c 
c seconds are measured in process time for solving
c 
c --- [ resources ] ----------------------------------------------------------
c 
c total process time since initialization:         4.94    seconds
c total real time since initialization:            4.99    seconds
c maximum resident set size of process:          104.16    MB
c 
c --- [ shutting down ] ------------------------------------------------------
c 
c exit 10
c --- [ banner ] -------------------------------------------------------------
c 
c CaDiCaL Radically Simplified CDCL SAT Solver
c Copyright (c) 2016-2021 A. Biere, M. Fleury, N. Froleyks
c 
c Version 1.5.2 ca9bff05c11bde5eae4912f9932871d1527e61d8
c g++ (GCC) 9.3.0 -Wall -Wextra -O3 -DNDEBUG
c Sun May 1 02:23:23 EDT 2022 Linux gra-login1 3.10.0-1160.59.1.el7.x86_64 x86_64
c 
c --- [ limit ] --------------------------------------------------------------
c 
c setting conflict limit to 200000 conflicts (due to '200000')
c 
c --- [ parsing input ] ------------------------------------------------------
c 
c reading DIMACS file from 'simp/12.cubes241.adj.simp4'
c opening file to read 'simp/12.cubes241.adj.simp4'
c found 'p cnf 5320 96714' header
c parsed 96714 clauses in 0.37 seconds process time
c closing file 'simp/12.cubes241.adj.simp4'
c after reading 28253014 bytes 26.9 MB
c 
c --- [ options ] ------------------------------------------------------------
c 
c all options are set to their default value
c 
c --- [ solving ] ------------------------------------------------------------
c 
c time measured in process time since initialization
c 
c  seconds  reductions  redundant  irredundant
c         MB    restarts       trail     variables
c          level   conflicts       glue       remaining
c 
c *  0.37 34  0 0   0    0    0  0% 0 96714 3638 68%
c {  0.39 37  0 0   0    0    0  0% 0 96714 3638 68%
c -  0.89 45 68 1  37  304  233 19% 22 96714 3638 68%
c -  1.51 74 45 2  76  904  564 21% 21 96714 3638 68%
c }  1.54 71 44 2  76 1003  645 22% 21 96714 3638 68%
c [  1.54 71  0 2  76 1003  645  0% 0 96714 3638 68%
c O  1.55 71 30 2  76 1004  646  4% 2 96714 3638 68%
c -  1.75 71 50 3  76 1804  903 26% 16 96714 3638 68%
c ]  2.08 71 34 3  77 3004 1654 36% 15 96714 3638 68%
c {  2.08 71 44 3  77 3004 1654 32% 21 96714 3638 68%
c -  2.11 71 44 4  77 3004 1168 32% 21 96714 3638 68%
c F  2.11 71 44 4  77 3005 1169 32% 21 96714 3638 68%
c -  2.49 69 29 5  85 4504 1466 33% 17 96714 3638 68%
c p  3.17 69 33 5 156 5002 9345 33% 18 96714 3638 68%
c #  3.67 69 31 5 232 6008 9866 32% 18 96714 3638 68%
c -  3.80 95 30 6 239 6304 2177 32% 17 96714 3638 68%
c }  4.20 95 30 6 324 7004 2678 32% 18 96714 3638 68%
c [  4.20 95 34 6 324 7004 2678 36% 15 96714 3638 68%
c -  4.67 122 27 7 325 8404 2403 36% 15 96714 3638 68%
c s  5.08 122 27 7 326 9466 3064 36% 16 94958 3638 68%
c 
c  seconds   reductions  redundant   irredundant
c          MB    restarts       trail      variables
c           level   conflicts       glue        remaining
c 
c v  5.62 122 27 7 326 9466 3064 36% 16 94907 3638 68%
c t  5.65 122 27 7 326 9466 3061 36% 16 94841 3638 68%
c e  5.85 122 27 7 326 9466 2940 36% 16 89513 786 15%
c s  5.91 122 27 7 326 9466 2937 36% 16 89369 786 15%
c I  6.28 95 26 7 326 10012 3289 67% 16 89369 786 15%
c -  6.45 115 28 8 327 10806 2922 67% 18 89369 786 15%
c -  7.04 116 29 9 329 13506 3190 68% 21 89369 786 15%
c 3  7.50 116 30 9 329 15003 4764 68% 23 89368 786 15%
c d  7.57 116 30 9 329 15003 4784 68% 23 82937 785 15%
c p  7.76 116 30 9 329 15003 6279 68% 23 82937 785 15%
c ]  7.77 116 30 9 329 15004 6280 68% 23 82937 785 15%
c {  7.77 116 30 9 329 15004 6280 149% 18 82937 785 15%
c B  7.80 116 30 9 329 15013 6289 149% 18 82937 785 15%
c -  8.32 116 27 10 360 16506 3783 131% 17 82937 785 15%
c -  9.40 116 24 11 456 19807 3957 108% 16 82937 785 15%
c W  9.72 116 23 11 456 21014 4671 104% 16 82937 785 15%
c } 10.20 116 22 11 486 22971 5786 98% 15 82937 785 15%
c 1 10.20 116 22 11 486 22971 5786 98% 15 82937 785 15%
c 
c --- [ writing output ] -----------------------------------------------------
c 
c writing simplified CNF to DIMACS file 'simp/12.cubes241.adj.simp5'
c * 10.20 116 22 11 486 22971 5786 98% 15 82937 785 15%
c opening file to write 'simp/12.cubes241.adj.simp5'
c writing 'p cnf 5320 82937' header
c closing file 'simp/12.cubes241.adj.simp5'
c after writing 26425754 bytes 25.2 MB
c wrote 82937 clauses in 0.22 seconds process time
c 
c --- [ writing extension ] --------------------------------------------------
c 
c writing extension stack to 'simp/12.cubes241.adj.ext5'
c opening file to write 'simp/12.cubes241.adj.ext5'
c closing file 'simp/12.cubes241.adj.ext5'
c after writing 137839 bytes 0.1 MB
c wrote 5784 witnesses in 0.00 seconds process time
c 
c --- [ result ] -------------------------------------------------------------
c 
s SATISFIABLE
c 
c --- [ run-time profiling ] -------------------------------------------------
c 
c process time taken by individual solving procedures
c (percentage relative to process time for solving)
c 
c         8.19   83.32% search
c         5.36   54.47% unstable
c         2.77   28.17% stable
c         1.64   16.68% simplify
c         0.56    5.66% vivify
c         0.45    4.56% probe
c         0.38    3.84% elim
c         0.37    3.75% parse
c         0.12    1.22% subsume
c         0.04    0.46% walk
c         0.04    0.43% ternary
c         0.02    0.23% lucky
c   =================================
c         9.83   94.31% solve
c 
c last line shows process time for solving
c (percentage relative to total process time)
c 
c --- [ statistics ] ---------------------------------------------------------
c 
c chronological:              4532        19.73 %  of conflicts
c conflicts:                 22971      2336.09    per second
c decisions:                 49611      5045.30    per second
c eliminated:                 2852        53.61 %  of all variables
c learned:                   22474        97.84 %  per conflict
c learned_lits:            3204141       100.00 %  learned literals
c minimized:                     0         0.00 %  learned literals
c shrunken:                1953524        60.97 %  learned literals
c minishrunken:             233428         7.29 %  learned literals
c propagations:            2794916         0.28 M  per second
c reduced:                    8551        37.23 %  per conflict
c rephased:                      6      3828.50    interval
c restarts:                    486        47.27    interval
c stabilizing:                   2        43.54 %  of conflicts
c substituted:                   1         0.02 %  of all variables
c subsumed:                  10263         3.95 %  of all clauses
c strengthened:               9868         3.80 %  of all clauses
c ternary:                    2216         0.54 %  of resolved
c vivified:                     53         0.02 %  of all clauses
c walked:                        1     22971.00    interval
c weakened:                   5784         2.89    average size
c 
c seconds are measured in process time for solving
c 
c --- [ resources ] ----------------------------------------------------------
c 
c total process time since initialization:        10.43    seconds
c total real time since initialization:           10.61    seconds
c maximum resident set size of process:          121.96    MB
c 
c --- [ shutting down ] ------------------------------------------------------
c 
c exit 10
WARNING! DIMACS header mismatch: wrong number of variables.
============================[ Problem Statistics ]=============================
|                                                                             |
|  Number of variables:          2943                                         |
|  Number of clauses:           82939                                         |
|  Parse time:                   0.36 s                                       |
|  Simplification time:          0.01 s                                       |
|                                                                             |
============================[ Search Statistics ]====================================================
| Conflicts |          ORIGINAL         |          LEARNT          | Num Sols |      SUBGRAPHS      |
|           |    Vars  Clauses Literals |    Limit  Clauses Lit/Cl |          | Canonical Noncanon. |
=====================================================================================================
|       100 |    2849    82939  5995395 |     2000      100    122 |        0 |        20         0 |
|       251 |    2849    82940  5995427 |     2000      251    125 |        0 |        34         1 |
|       476 |    2849    82940  5995427 |     2000      476    113 |        0 |        40         1 |
|       817 |    2849    82944  5995496 |     2000      817    102 |        0 |        56         5 |
|      1332 |    2849    82953  5995768 |     2000     1332     97 |        0 |        71        14 |
|      2092 |    2849    82954  5995783 |     3602     1094     66 |        0 |        71        15 |
|      3239 |    2849    82962  5995917 |     3602     2241     72 |        0 |        90        23 |
|      4972 |    2849    82987  5996363 |     5001     2173     50 |        0 |       177        48 |
|      7564 |    2849    83017  5997105 |     5001     4765     64 |        0 |       242        78 |
|     11481 |    2849    83090  5998474 |     6301     6182     66 |        0 |       370       151 |
|     17315 |    2849    83158  5999819 |     8780     5095     44 |        0 |       454       219 |
|     26210 |    2849    83404  6004203 |     9995     9605     56 |        0 |       701       465 |
|     39498 |    2849    83718  6008954 |    12401    12299     61 |        0 |       906       779 |
|     59560 |    2849    84319  6019140 |    16004    11964     50 |        0 |      1228      1380 |
|     89628 |    2849    85195  6033092 |    19608    16236     48 |        0 |      1614      2256 |
|    134325 |    2849    86103  6045663 |    24409    18134     47 |        0 |      2052      3164 |
|    200659 |    2849    86753  6056455 |    30419    17478     39 |        0 |      2534      3814 |
|    300861 |    2849    88429  6082921 |    36410    35671     60 |        0 |      3622      5490 |
|    450857 |    2849    90636  6117440 |    46009    23266     28 |        0 |      4720      7697 |
=====================================================================================================
Number of solutions   : 0
Canonical subgraphs   : 5501           (139 /sec)
          order  3    : 1              (200000 /sec)
          order  4    : 1              (500000 /sec)
          order  5    : 1              (200000 /sec)
          order  6    : 1              (55556 /sec)
          order  7    : 2              (10101 /sec)
          order  8    : 6              (2605 /sec)
          order  9    : 23             (801 /sec)
          order 10    : 98             (357 /sec)
          order 11    : 368            (166 /sec)
          order 12    : 1730           (143 /sec)
          order 13    : 2749           (134 /sec)
          order 14    : 365            (123 /sec)
          order 15    : 72             (93 /sec)
          order 16    : 22             (114 /sec)
          order 17    : 17             (113 /sec)
          order 18    : 15             (117 /sec)
          order 19    : 15             (111 /sec)
          order 20    : 15             (105 /sec)
          order 21    : 0              (-nan /sec)
Noncanonical subgraphs: 9618           (2909 /sec)
          order  3    : 0              (-nan /sec)
          order  4    : 0              (-nan /sec)
          order  5    : 0              (-nan /sec)
          order  6    : 0              (-nan /sec)
          order  7    : 0              (-nan /sec)
          order  8    : 0              (-nan /sec)
          order  9    : 0              (-nan /sec)
          order 10    : 0              (-nan /sec)
          order 11    : 0              (-nan /sec)
          order 12    : 0              (-nan /sec)
          order 13    : 7607           (6449 /sec)
          order 14    : 1974           (1018 /sec)
          order 15    : 22             (584 /sec)
          order 16    : 0              (-nan /sec)
          order 17    : 0              (-nan /sec)
          order 18    : 0              (-nan /sec)
          order 19    : 0              (-nan /sec)
          order 20    : 0              (-nan /sec)
Canonicity checking   : 39.6777 s
Noncanonicity checking: 3.30666 s
Total canonicity time : 42.9844 s
database reductions   : 40
restarts              : 1181
conflicts             : 565877         (3290 /sec)
decisions             : 737987         (0.00 % random) (4290 /sec)
propagations          : 27671912       (160875 /sec)
conflict literals     : 48444015       (54.51 % deleted)
actual reward         : 0.256950
Memory used           : 106.00 MB
CPU time              : 172.009 s

UNSATISFIABLE
